p cnf 307 738
1 0
12 13 0
-12 -13 0
14 15 0
-14 -15 0
-11 12 0
-11 14 0
11 -12 -14 0
16 17 0
-16 -17 0
-10 11 0
-10 16 0
10 -11 -16 0
-19 11 0
19 -11 0
20 -17 0
-20 17 0
-18 19 0
-18 20 0
18 -19 -20 0
9 -10 0
9 -18 0
-9 10 18 0
23 13 0
-23 -13 0
24 -15 0
-24 15 0
-22 23 0
-22 24 0
22 -23 -24 0
25 17 0
-25 -17 0
-21 22 0
-21 25 0
21 -22 -25 0
8 -9 0
8 -21 0
-8 9 21 0
28 -13 0
-28 13 0
29 15 0
-29 -15 0
-27 28 0
-27 29 0
27 -28 -29 0
30 17 0
-30 -17 0
-26 27 0
-26 30 0
26 -27 -30 0
7 -8 0
7 -26 0
-7 8 26 0
-32 22 0
32 -22 0
33 -17 0
-33 17 0
-31 32 0
-31 33 0
31 -32 -33 0
-6 7 0
-6 31 0
6 -7 -31 0
41 42 0
-41 -42 0
43 44 0
-43 -44 0
-40 41 0
-40 43 0
40 -41 -43 0
45 46 0
-45 -46 0
-39 40 0
-39 45 0
39 -40 -45 0
-48 40 0
48 -40 0
49 -46 0
-49 46 0
-47 48 0
-47 49 0
47 -48 -49 0
38 -39 0
38 -47 0
-38 39 47 0
52 42 0
-52 -42 0
53 -44 0
-53 44 0
-51 52 0
-51 53 0
51 -52 -53 0
54 46 0
-54 -46 0
-50 51 0
-50 54 0
50 -51 -54 0
37 -38 0
37 -50 0
-37 38 50 0
57 -42 0
-57 42 0
58 44 0
-58 -44 0
-56 57 0
-56 58 0
56 -57 -58 0
59 46 0
-59 -46 0
-55 56 0
-55 59 0
55 -56 -59 0
36 -37 0
36 -55 0
-36 37 55 0
-61 51 0
61 -51 0
62 -46 0
-62 46 0
-60 61 0
-60 62 0
60 -61 -62 0
-35 36 0
-35 60 0
35 -36 -60 0
-63 31 0
63 -31 0
-34 35 0
-34 63 0
34 -35 -63 0
5 -6 0
5 -34 0
-5 6 34 0
71 72 0
-71 -72 0
73 74 0
-73 -74 0
-70 71 0
-70 73 0
70 -71 -73 0
75 76 0
-75 -76 0
-69 70 0
-69 75 0
69 -70 -75 0
-78 70 0
78 -70 0
79 -76 0
-79 76 0
-77 78 0
-77 79 0
77 -78 -79 0
68 -69 0
68 -77 0
-68 69 77 0
82 72 0
-82 -72 0
83 -74 0
-83 74 0
-81 82 0
-81 83 0
81 -82 -83 0
84 76 0
-84 -76 0
-80 81 0
-80 84 0
80 -81 -84 0
67 -68 0
67 -80 0
-67 68 80 0
87 -72 0
-87 72 0
88 74 0
-88 -74 0
-86 87 0
-86 88 0
86 -87 -88 0
89 76 0
-89 -76 0
-85 86 0
-85 89 0
85 -86 -89 0
66 -67 0
66 -85 0
-66 67 85 0
-91 81 0
91 -81 0
92 -76 0
-92 76 0
-90 91 0
-90 92 0
90 -91 -92 0
-65 66 0
-65 90 0
65 -66 -90 0
-94 31 0
94 -31 0
-95 60 0
95 -60 0
-93 94 0
-93 95 0
93 -94 -95 0
-64 65 0
-64 93 0
64 -65 -93 0
4 -5 0
4 -64 0
-4 5 64 0
103 104 0
-103 -104 0
105 106 0
-105 -106 0
-102 103 0
-102 105 0
102 -103 -105 0
107 108 0
-107 -108 0
-101 102 0
-101 107 0
101 -102 -107 0
-110 102 0
110 -102 0
111 -108 0
-111 108 0
-109 110 0
-109 111 0
109 -110 -111 0
100 -101 0
100 -109 0
-100 101 109 0
114 104 0
-114 -104 0
115 -106 0
-115 106 0
-113 114 0
-113 115 0
113 -114 -115 0
116 108 0
-116 -108 0
-112 113 0
-112 116 0
112 -113 -116 0
99 -100 0
99 -112 0
-99 100 112 0
119 -104 0
-119 104 0
120 106 0
-120 -106 0
-118 119 0
-118 120 0
118 -119 -120 0
121 108 0
-121 -108 0
-117 118 0
-117 121 0
117 -118 -121 0
98 -99 0
98 -117 0
-98 99 117 0
-123 113 0
123 -113 0
124 -108 0
-124 108 0
-122 123 0
-122 124 0
122 -123 -124 0
-97 98 0
-97 122 0
97 -98 -122 0
-126 93 0
126 -93 0
-127 90 0
127 -90 0
-125 126 0
-125 127 0
125 -126 -127 0
-96 97 0
-96 125 0
96 -97 -125 0
3 -4 0
3 -96 0
-3 4 96 0
-134 125 0
134 -125 0
-135 122 0
135 -122 0
-133 134 0
-133 135 0
133 -134 -135 0
-136 3 0
136 -3 0
132 -133 0
132 -136 0
-132 133 136 0
-143 117 0
143 -117 0
-144 18 0
144 -18 0
-142 143 0
-142 144 0
142 -143 -144 0
-146 122 0
146 -122 0
-147 26 0
147 -26 0
-145 146 0
-145 147 0
145 -146 -147 0
141 -142 0
141 -145 0
-141 142 145 0
-149 112 0
149 -112 0
-150 31 0
150 -31 0
-148 149 0
-148 150 0
148 -149 -150 0
140 -141 0
140 -148 0
-140 141 148 0
-152 109 0
152 -109 0
-153 21 0
153 -21 0
-151 152 0
-151 153 0
151 -152 -153 0
139 -140 0
139 -151 0
-139 140 151 0
-155 112 0
155 -112 0
-156 26 0
156 -26 0
-154 155 0
-154 156 0
154 -155 -156 0
138 -139 0
138 -154 0
-138 139 154 0
-158 101 0
158 -101 0
-159 18 0
159 -18 0
-157 158 0
-157 159 0
157 -158 -159 0
137 -138 0
137 -157 0
-137 138 157 0
-131 132 0
-131 137 0
131 -132 -137 0
-161 132 0
161 -132 0
-168 117 0
168 -117 0
-169 47 0
169 -47 0
-167 168 0
-167 169 0
167 -168 -169 0
-171 122 0
171 -122 0
-172 55 0
172 -55 0
-170 171 0
-170 172 0
170 -171 -172 0
166 -167 0
166 -170 0
-166 167 170 0
-174 112 0
174 -112 0
-175 60 0
175 -60 0
-173 174 0
-173 175 0
173 -174 -175 0
165 -166 0
165 -173 0
-165 166 173 0
-177 109 0
177 -109 0
-178 50 0
178 -50 0
-176 177 0
-176 178 0
176 -177 -178 0
164 -165 0
164 -176 0
-164 165 176 0
-180 112 0
180 -112 0
-181 55 0
181 -55 0
-179 180 0
-179 181 0
179 -180 -181 0
163 -164 0
163 -179 0
-163 164 179 0
-183 101 0
183 -101 0
-184 47 0
184 -47 0
-182 183 0
-182 184 0
182 -183 -184 0
162 -163 0
162 -182 0
-162 163 182 0
-160 161 0
-160 162 0
160 -161 -162 0
130 -131 0
130 -160 0
-130 131 160 0
-186 132 0
186 -132 0
-193 117 0
193 -117 0
-194 77 0
194 -77 0
-192 193 0
-192 194 0
192 -193 -194 0
-196 122 0
196 -122 0
-197 85 0
197 -85 0
-195 196 0
-195 197 0
195 -196 -197 0
191 -192 0
191 -195 0
-191 192 195 0
-199 112 0
199 -112 0
-200 90 0
200 -90 0
-198 199 0
-198 200 0
198 -199 -200 0
190 -191 0
190 -198 0
-190 191 198 0
-202 109 0
202 -109 0
-203 80 0
203 -80 0
-201 202 0
-201 203 0
201 -202 -203 0
189 -190 0
189 -201 0
-189 190 201 0
-205 112 0
205 -112 0
-206 85 0
206 -85 0
-204 205 0
-204 206 0
204 -205 -206 0
188 -189 0
188 -204 0
-188 189 204 0
-208 101 0
208 -101 0
-209 77 0
209 -77 0
-207 208 0
-207 209 0
207 -208 -209 0
187 -188 0
187 -207 0
-187 188 207 0
-185 186 0
-185 187 0
185 -186 -187 0
129 -130 0
129 -185 0
-129 130 185 0
-211 132 0
211 -132 0
-218 117 0
218 -117 0
-219 109 0
219 -109 0
-217 218 0
-217 219 0
217 -218 -219 0
-221 122 0
221 -122 0
-222 117 0
222 -117 0
-220 221 0
-220 222 0
220 -221 -222 0
216 -217 0
216 -220 0
-216 217 220 0
-224 112 0
224 -112 0
-225 122 0
225 -122 0
-223 224 0
-223 225 0
223 -224 -225 0
215 -216 0
215 -223 0
-215 216 223 0
-227 109 0
227 -109 0
-228 112 0
228 -112 0
-226 227 0
-226 228 0
226 -227 -228 0
214 -215 0
214 -226 0
-214 215 226 0
-230 112 0
230 -112 0
-231 117 0
231 -117 0
-229 230 0
-229 231 0
229 -230 -231 0
213 -214 0
213 -229 0
-213 214 229 0
-233 101 0
233 -101 0
-234 109 0
234 -109 0
-232 233 0
-232 234 0
232 -233 -234 0
212 -213 0
212 -232 0
-212 213 232 0
-210 211 0
-210 212 0
210 -211 -212 0
128 -129 0
128 -210 0
-128 129 210 0
2 -3 0
2 -128 0
-2 3 128 0
-244 26 0
244 -26 0
-245 47 0
245 -47 0
-243 244 0
-243 245 0
243 -244 -245 0
-247 31 0
247 -31 0
-248 55 0
248 -55 0
-246 247 0
-246 248 0
246 -247 -248 0
242 -243 0
242 -246 0
-242 243 246 0
-250 21 0
250 -21 0
-251 60 0
251 -60 0
-249 250 0
-249 251 0
249 -250 -251 0
241 -242 0
241 -249 0
-241 242 249 0
-253 18 0
253 -18 0
-254 50 0
254 -50 0
-252 253 0
-252 254 0
252 -253 -254 0
240 -241 0
240 -252 0
-240 241 252 0
-256 21 0
256 -21 0
-257 55 0
257 -55 0
-255 256 0
-255 257 0
255 -256 -257 0
239 -240 0
239 -255 0
-239 240 255 0
-259 10 0
259 -10 0
-260 47 0
260 -47 0
-258 259 0
-258 260 0
258 -259 -260 0
238 -239 0
238 -258 0
-238 239 258 0
-267 55 0
267 -55 0
-268 77 0
268 -77 0
-266 267 0
-266 268 0
266 -267 -268 0
-270 60 0
270 -60 0
-271 85 0
271 -85 0
-269 270 0
-269 271 0
269 -270 -271 0
265 -266 0
265 -269 0
-265 266 269 0
-273 50 0
273 -50 0
-274 90 0
274 -90 0
-272 273 0
-272 274 0
272 -273 -274 0
264 -265 0
264 -272 0
-264 265 272 0
-276 47 0
276 -47 0
-277 80 0
277 -80 0
-275 276 0
-275 277 0
275 -276 -277 0
263 -264 0
263 -275 0
-263 264 275 0
-279 50 0
279 -50 0
-280 85 0
280 -85 0
-278 279 0
-278 280 0
278 -279 -280 0
262 -263 0
262 -278 0
-262 263 278 0
-282 39 0
282 -39 0
-283 77 0
283 -77 0
-281 282 0
-281 283 0
281 -282 -283 0
261 -262 0
261 -281 0
-261 262 281 0
-237 238 0
-237 261 0
237 -238 -261 0
-290 85 0
290 -85 0
-291 109 0
291 -109 0
-289 290 0
-289 291 0
289 -290 -291 0
-293 90 0
293 -90 0
-294 117 0
294 -117 0
-292 293 0
-292 294 0
292 -293 -294 0
288 -289 0
288 -292 0
-288 289 292 0
-296 80 0
296 -80 0
-297 122 0
297 -122 0
-295 296 0
-295 297 0
295 -296 -297 0
287 -288 0
287 -295 0
-287 288 295 0
-299 77 0
299 -77 0
-300 112 0
300 -112 0
-298 299 0
-298 300 0
298 -299 -300 0
286 -287 0
286 -298 0
-286 287 298 0
-302 80 0
302 -80 0
-303 117 0
303 -117 0
-301 302 0
-301 303 0
301 -302 -303 0
285 -286 0
285 -301 0
-285 286 301 0
-305 69 0
305 -69 0
-306 109 0
306 -109 0
-304 305 0
-304 306 0
304 -305 -306 0
284 -285 0
284 -304 0
-284 285 304 0
-236 237 0
-236 284 0
236 -237 -284 0
-307 10 0
307 -10 0
-235 236 0
-235 307 0
235 -236 -307 0
-1 2 0
-1 235 0
1 -2 -235 0
